# file created with molSimplify
!B3LYP def2-TZVP NORI DKH2 UNO Opt

!SlowConv
%scf
MaxIter 500
Shift Shift 0.25 ErrOff 1e-05  end
DIISMaxEq 15
end

*xyzfile 2 5 orca_ccsdt.xyz

$new_job
!CCSD(T) def2-TZVP NORI DKH2 UNO Sp

!SlowConv
%scf
MaxIter 500
Shift Shift 0.25 ErrOff 1e-05  end
DIISMaxEq 15
end

%mdci
UseQROs true
maxiter 200
Lshift 0.2
end

*xyzfile 2 5 
