&CONTROL
calculation = "relax" 
prefix = clean
pseudo_dir = "/opt/espresso-5.1/pseudo"
outdir = "./"
wf_collect = .true
tprnfor = .true.
restart_mode = "from_scratch"
nstep = 1000
/ 
&SYSTEM
ibrav = 0 
nat  = 54
ntyp = 1
nspin = 1
occupations = "smearing"
degauss = 0.01
ecutwfc = 25.0 
ecutrho = 250.0 
/ 
&ELECTRONS
mixing_beta = 0.4 
electron_maxstep = 350 
/ 
&IONS
ion_dynamics = 'bfgs' 
/ 
CELL_PARAMETERS {angstrom}
11.973 0 0
0 11.973 0
0 0 27.982
 
ATOMIC_SPECIES
Pd    106.4     .pbe-van_ak.UPF
ATOMIC_POSITIONS {angstrom}
Pd   0.000000    0.000000    0.000000    0.000000    0.000000    0.000000
Pd   1.995500    1.995500    0.000000    0.000000    0.000000    0.000000
Pd   0.000000    3.991000    0.000000    0.000000    0.000000    0.000000
Pd   1.995500    5.986500    0.000000    0.000000    0.000000    0.000000
Pd   0.000000    7.982000    0.000000    0.000000    0.000000    0.000000
Pd   1.995500    9.977500    0.000000    0.000000    0.000000    0.000000
Pd   3.991000    0.000000    0.000000    0.000000    0.000000    0.000000
Pd   5.986500    1.995500    0.000000    0.000000    0.000000    0.000000
Pd   3.991000    3.991000    0.000000    0.000000    0.000000    0.000000
Pd   5.986500    5.986500    0.000000    0.000000    0.000000    0.000000
Pd   3.991000    7.982000    0.000000    0.000000    0.000000    0.000000
Pd   5.986500    9.977500    0.000000    0.000000    0.000000    0.000000
Pd   7.982000    0.000000    0.000000    0.000000    0.000000    0.000000
Pd   9.977500    1.995500    0.000000    0.000000    0.000000    0.000000
Pd   7.982000    3.991000    0.000000    0.000000    0.000000    0.000000
Pd   9.977500    5.986500    0.000000    0.000000    0.000000    0.000000
Pd   7.982000    7.982000    0.000000    0.000000    0.000000    0.000000
Pd   9.977500    9.977500    0.000000    0.000000    0.000000    0.000000
Pd   0.000000    1.995500    1.995500    1.000000    1.000000    1.000000
Pd   1.995500    0.000000    1.995500    1.000000    1.000000    1.000000
Pd   0.000000    5.986500    1.995500    1.000000    1.000000    1.000000
Pd   1.995500    3.991000    1.995500    1.000000    1.000000    1.000000
Pd   0.000000    9.977500    1.995500    1.000000    1.000000    1.000000
Pd   1.995500    7.982000    1.995500    1.000000    1.000000    1.000000
Pd   3.991000    1.995500    1.995500    1.000000    1.000000    1.000000
Pd   5.986500    0.000000    1.995500    1.000000    1.000000    1.000000
Pd   3.991000    5.986500    1.995500    1.000000    1.000000    1.000000
Pd   5.986500    3.991000    1.995500    1.000000    1.000000    1.000000
Pd   3.991000    9.977500    1.995500    1.000000    1.000000    1.000000
Pd   5.986500    7.982000    1.995500    1.000000    1.000000    1.000000
Pd   7.982000    1.995500    1.995500    1.000000    1.000000    1.000000
Pd   9.977500    0.000000    1.995500    1.000000    1.000000    1.000000
Pd   7.982000    5.986500    1.995500    1.000000    1.000000    1.000000
Pd   9.977500    3.991000    1.995500    1.000000    1.000000    1.000000
Pd   7.982000    9.977500    1.995500    1.000000    1.000000    1.000000
Pd   9.977500    7.982000    1.995500    1.000000    1.000000    1.000000
Pd   0.000000    0.000000    3.991000    1.000000    1.000000    1.000000
Pd   1.995500    1.995500    3.991000    1.000000    1.000000    1.000000
Pd   0.000000    3.991000    3.991000    1.000000    1.000000    1.000000
Pd   1.995500    5.986500    3.991000    1.000000    1.000000    1.000000
Pd   0.000000    7.982000    3.991000    1.000000    1.000000    1.000000
Pd   1.995500    9.977500    3.991000    1.000000    1.000000    1.000000
Pd   3.991000    0.000000    3.991000    1.000000    1.000000    1.000000
Pd   5.986500    1.995500    3.991000    1.000000    1.000000    1.000000
Pd   3.991000    3.991000    3.991000    1.000000    1.000000    1.000000
Pd   5.986500    5.986500    3.991000    1.000000    1.000000    1.000000
Pd   3.991000    7.982000    3.991000    1.000000    1.000000    1.000000
Pd   5.986500    9.977500    3.991000    1.000000    1.000000    1.000000
Pd   7.982000    0.000000    3.991000    1.000000    1.000000    1.000000
Pd   9.977500    1.995500    3.991000    1.000000    1.000000    1.000000
Pd   7.982000    3.991000    3.991000    1.000000    1.000000    1.000000
Pd   9.977500    5.986500    3.991000    1.000000    1.000000    1.000000
Pd   7.982000    7.982000    3.991000    1.000000    1.000000    1.000000
Pd   9.977500    9.977500    3.991000    1.000000    1.000000    1.000000
K_POINTS {automatic}
4 4 1 0 0 0
